data/lp_files/pEFS/55_7.lp
\ Model foo
\ LP format - for model browsing. Use MPS format to capture full model detail.
Minimize
  z
Subject To
 allocateEach[1]: x[1,1] + x[2,1] + x[3,1] = 1
 allocateEach[2]: x[1,2] + x[2,2] + x[3,2] = 1
 allocateEach[3]: x[1,3] + x[2,3] + x[3,3] = 1
 allocateEach[4]: x[1,4] + x[2,4] + x[3,4] = 1
 allocateEach[5]: x[1,5] + x[2,5] + x[3,5] = 1
 allocateEach[6]: x[1,6] + x[2,6] + x[3,6] = 1
 allocateEach[7]: x[1,7] + x[2,7] + x[3,7] = 1
 allocateEach[8]: x[1,8] + x[2,8] + x[3,8] = 1
 allocateEach[9]: x[1,9] + x[2,9] + x[3,9] = 1
 allocateEach[10]: x[1,10] + x[2,10] + x[3,10] = 1
 allocateEach[11]: x[1,11] + x[2,11] + x[3,11] = 1
 allocateEach[12]: x[1,12] + x[2,12] + x[3,12] = 1
 allocateEach[13]: x[1,13] + x[2,13] + x[3,13] = 1
 allocateEach[14]: x[1,14] + x[2,14] + x[3,14] = 1
 allocateEach[15]: x[1,15] + x[2,15] + x[3,15] = 1
 allocateAllCash: cashProportion[1] + cashProportion[2] + cashProportion[3]
   = 1
 findWorstP[1,2]: z + 0.0696096061256453 cashProportion[1]
   - 0.0696096061256453 cashProportion[2] + 0.027078136782876 x[1,1]
   + 0.0372411392772203 x[1,2] + 0.0373455536864087 x[1,3]
   + 0.0771042403851731 x[1,4] + 0.0575207378618249 x[1,5]
   + 0.0782063924821625 x[1,6] + 0.0675561227449388 x[1,7]
   + 0.1052961308660595 x[1,8] + 0.00827194152793085 x[1,9]
   + 0.0748535297871106 x[1,10] + 0.0660015082081327 x[1,11]
   + 0.1014095945240443 x[1,12] + 0.1146702244909797 x[1,13]
   + 0.0057891989094495 x[1,14] + 0.0720459423400429 x[1,15]
   - 0.027078136782876 x[2,1] - 0.0372411392772203 x[2,2]
   - 0.0373455536864087 x[2,3] - 0.0771042403851731 x[2,4]
   - 0.0575207378618249 x[2,5] - 0.0782063924821625 x[2,6]
   - 0.0675561227449388 x[2,7] - 0.1052961308660595 x[2,8]
   - 0.00827194152793085 x[2,9] - 0.0748535297871106 x[2,10]
   - 0.0660015082081327 x[2,11] - 0.1014095945240443 x[2,12]
   - 0.1146702244909797 x[2,13] - 0.0057891989094495 x[2,14]
   - 0.0720459423400429 x[2,15] >= 0
 findWorstP[1,3]: z + 0.0696096061256453 cashProportion[1]
   - 0.0696096061256453 cashProportion[3] + 0.027078136782876 x[1,1]
   + 0.0372411392772203 x[1,2] + 0.0373455536864087 x[1,3]
   + 0.0771042403851731 x[1,4] + 0.0575207378618249 x[1,5]
   + 0.0782063924821625 x[1,6] + 0.0675561227449388 x[1,7]
   + 0.1052961308660595 x[1,8] + 0.00827194152793085 x[1,9]
   + 0.0748535297871106 x[1,10] + 0.0660015082081327 x[1,11]
   + 0.1014095945240443 x[1,12] + 0.1146702244909797 x[1,13]
   + 0.0057891989094495 x[1,14] + 0.0720459423400429 x[1,15]
   - 0.027078136782876 x[3,1] - 0.0372411392772203 x[3,2]
   - 0.0373455536864087 x[3,3] - 0.0771042403851731 x[3,4]
   - 0.0575207378618249 x[3,5] - 0.0782063924821625 x[3,6]
   - 0.0675561227449388 x[3,7] - 0.1052961308660595 x[3,8]
   - 0.00827194152793085 x[3,9] - 0.0748535297871106 x[3,10]
   - 0.0660015082081327 x[3,11] - 0.1014095945240443 x[3,12]
   - 0.1146702244909797 x[3,13] - 0.0057891989094495 x[3,14]
   - 0.0720459423400429 x[3,15] >= 0
 findWorstP[2,1]: z - 0.0725987948600053 cashProportion[1]
   + 0.0725987948600053 cashProportion[2] - 0.0441521670740266 x[1,1]
   - 0.0652663165791448 x[1,2] - 0.1024973985431842 x[1,3]
   - 0.0873605498148731 x[1,4] - 0.0316651743581057 x[1,5]
   - 0.0173753115698279 x[1,6] - 0.0479757036033202 x[1,7]
   - 0.0504803620259904 x[1,8] - 0.0577281417128476 x[1,9]
   - 0.105062555961571 x[1,10] - 0.0523195314957772 x[1,11]
   - 0.00701788350313385 x[1,12] - 0.1058732425041744 x[1,13]
   - 0.0646129274254047 x[1,14] - 0.0880139389686131 x[1,15]
   + 0.0441521670740266 x[2,1] + 0.0652663165791448 x[2,2]
   + 0.1024973985431842 x[2,3] + 0.0873605498148731 x[2,4]
   + 0.0316651743581057 x[2,5] + 0.0173753115698279 x[2,6]
   + 0.0479757036033202 x[2,7] + 0.0504803620259904 x[2,8]
   + 0.0577281417128476 x[2,9] + 0.105062555961571 x[2,10]
   + 0.0523195314957772 x[2,11] + 0.00701788350313385 x[2,12]
   + 0.1058732425041744 x[2,13] + 0.0646129274254047 x[2,14]
   + 0.0880139389686131 x[2,15] >= 0
 findWorstP[2,3]: z + 0.0725987948600053 cashProportion[2]
   - 0.0725987948600053 cashProportion[3] + 0.0441521670740266 x[2,1]
   + 0.0652663165791448 x[2,2] + 0.1024973985431842 x[2,3]
   + 0.0873605498148731 x[2,4] + 0.0316651743581057 x[2,5]
   + 0.0173753115698279 x[2,6] + 0.0479757036033202 x[2,7]
   + 0.0504803620259904 x[2,8] + 0.0577281417128476 x[2,9]
   + 0.105062555961571 x[2,10] + 0.0523195314957772 x[2,11]
   + 0.00701788350313385 x[2,12] + 0.1058732425041744 x[2,13]
   + 0.0646129274254047 x[2,14] + 0.0880139389686131 x[2,15]
   - 0.0441521670740266 x[3,1] - 0.0652663165791448 x[3,2]
   - 0.1024973985431842 x[3,3] - 0.0873605498148731 x[3,4]
   - 0.0316651743581057 x[3,5] - 0.0173753115698279 x[3,6]
   - 0.0479757036033202 x[3,7] - 0.0504803620259904 x[3,8]
   - 0.0577281417128476 x[3,9] - 0.105062555961571 x[3,10]
   - 0.0523195314957772 x[3,11] - 0.00701788350313385 x[3,12]
   - 0.1058732425041744 x[3,13] - 0.0646129274254047 x[3,14]
   - 0.0880139389686131 x[3,15] >= 0
 findWorstP[3,1]: z - 0.0764613678938716 cashProportion[1]
   + 0.0764613678938716 cashProportion[3] - 0.0232569994010526 x[1,1]
   - 0.0433663391571409 x[1,2] - 0.0490627110652343 x[1,3]
   - 0.0363956111174829 x[1,4] - 0.00463865631889488 x[1,5]
   - 0.0683692064584369 x[1,6] - 0.1241350307757006 x[1,7]
   - 0.0788699009825286 x[1,8] - 0.1041658701940845 x[1,9]
   - 0.0838526334569459 x[1,10] - 0.0523632934459864 x[1,11]
   - 0.1223764193141415 x[1,12] - 0.0091498770246333 x[1,13]
   - 0.1215863185125715 x[1,14] - 0.00194976488129373 x[1,15]
   + 0.0232569994010526 x[3,1] + 0.0433663391571409 x[3,2]
   + 0.0490627110652343 x[3,3] + 0.0363956111174829 x[3,4]
   + 0.00463865631889488 x[3,5] + 0.0683692064584369 x[3,6]
   + 0.1241350307757006 x[3,7] + 0.0788699009825286 x[3,8]
   + 0.1041658701940845 x[3,9] + 0.0838526334569459 x[3,10]
   + 0.0523632934459864 x[3,11] + 0.1223764193141415 x[3,12]
   + 0.0091498770246333 x[3,13] + 0.1215863185125715 x[3,14]
   + 0.00194976488129373 x[3,15] >= 0
 findWorstP[3,2]: z - 0.0764613678938716 cashProportion[2]
   + 0.0764613678938716 cashProportion[3] - 0.0232569994010526 x[2,1]
   - 0.0433663391571409 x[2,2] - 0.0490627110652343 x[2,3]
   - 0.0363956111174829 x[2,4] - 0.00463865631889488 x[2,5]
   - 0.0683692064584369 x[2,6] - 0.1241350307757006 x[2,7]
   - 0.0788699009825286 x[2,8] - 0.1041658701940845 x[2,9]
   - 0.0838526334569459 x[2,10] - 0.0523632934459864 x[2,11]
   - 0.1223764193141415 x[2,12] - 0.0091498770246333 x[2,13]
   - 0.1215863185125715 x[2,14] - 0.00194976488129373 x[2,15]
   + 0.0232569994010526 x[3,1] + 0.0433663391571409 x[3,2]
   + 0.0490627110652343 x[3,3] + 0.0363956111174829 x[3,4]
   + 0.00463865631889488 x[3,5] + 0.0683692064584369 x[3,6]
   + 0.1241350307757006 x[3,7] + 0.0788699009825286 x[3,8]
   + 0.1041658701940845 x[3,9] + 0.0838526334569459 x[3,10]
   + 0.0523632934459864 x[3,11] + 0.1223764193141415 x[3,12]
   + 0.0091498770246333 x[3,13] + 0.1215863185125715 x[3,14]
   + 0.00194976488129373 x[3,15] >= 0
Bounds
 z <= 1
 -infinity <= cashProportion[1] <= 1
 -infinity <= cashProportion[2] <= 1
 -infinity <= cashProportion[3] <= 1
Binaries
 x[1,1] x[1,2] x[1,3] x[1,4] x[1,5] x[1,6] x[1,7] x[1,8] x[1,9] x[1,10]
 x[1,11] x[1,12] x[1,13] x[1,14] x[1,15] x[2,1] x[2,2] x[2,3] x[2,4] x[2,5]
 x[2,6] x[2,7] x[2,8] x[2,9] x[2,10] x[2,11] x[2,12] x[2,13] x[2,14]
 x[2,15] x[3,1] x[3,2] x[3,3] x[3,4] x[3,5] x[3,6] x[3,7] x[3,8] x[3,9]
 x[3,10] x[3,11] x[3,12] x[3,13] x[3,14] x[3,15]
End
