data/mps_files/q3/55_7.mps
NAME foo
ROWS
 N  OBJ
 E  allocateEach[1]
 E  allocateEach[2]
 E  allocateEach[3]
 E  allocateEach[4]
 E  allocateEach[5]
 E  allocateEach[6]
 E  allocateEach[7]
 E  allocateEach[8]
 E  allocateEach[9]
 E  allocateEach[10]
 E  allocateEach[11]
 E  allocateEach[12]
 E  allocateEach[13]
 E  allocateEach[14]
 E  allocateEach[15]
 E  allocateAllCash
 G  findWorstP[1,2]
 G  findWorstP[1,3]
 G  findWorstP[2,1]
 G  findWorstP[2,3]
 G  findWorstP[3,1]
 G  findWorstP[3,2]
COLUMNS
    z         OBJ       1
    z         findWorstP[1,2]  1
    z         findWorstP[1,3]  1
    z         findWorstP[2,1]  1
    z         findWorstP[2,3]  1
    z         findWorstP[3,1]  1
    z         findWorstP[3,2]  1
    cashProportion[1]  allocateAllCash  1
    cashProportion[1]  findWorstP[1,2]  6.9609606125645346e-02
    cashProportion[1]  findWorstP[1,3]  6.9609606125645346e-02
    cashProportion[1]  findWorstP[2,1]  -7.2598794860005339e-02
    cashProportion[1]  findWorstP[3,1]  -7.6461367893871646e-02
    cashProportion[2]  allocateAllCash  1
    cashProportion[2]  findWorstP[1,2]  -6.9609606125645346e-02
    cashProportion[2]  findWorstP[2,1]  7.2598794860005339e-02
    cashProportion[2]  findWorstP[2,3]  7.2598794860005339e-02
    cashProportion[2]  findWorstP[3,2]  -7.6461367893871646e-02
    cashProportion[3]  allocateAllCash  1
    cashProportion[3]  findWorstP[1,3]  -6.9609606125645346e-02
    cashProportion[3]  findWorstP[2,3]  -7.2598794860005339e-02
    cashProportion[3]  findWorstP[3,1]  7.6461367893871646e-02
    cashProportion[3]  findWorstP[3,2]  7.6461367893871646e-02
    MARKER    'MARKER'                 'INTORG'
    x[1,1]    allocateEach[1]  1
    x[1,1]    findWorstP[1,2]  2.7078136782876037e-02
    x[1,1]    findWorstP[1,3]  2.7078136782876037e-02
    x[1,1]    findWorstP[2,1]  -4.4152167074026569e-02
    x[1,1]    findWorstP[3,1]  -2.3256999401052619e-02
    x[1,2]    allocateEach[2]  1
    x[1,2]    findWorstP[1,2]  3.7241139277220253e-02
    x[1,2]    findWorstP[1,3]  3.7241139277220253e-02
    x[1,2]    findWorstP[2,1]  -6.5266316579144792e-02
    x[1,2]    findWorstP[3,1]  -4.3366339157140860e-02
    x[1,3]    allocateEach[3]  1
    x[1,3]    findWorstP[1,2]  3.7345553686408725e-02
    x[1,3]    findWorstP[1,3]  3.7345553686408725e-02
    x[1,3]    findWorstP[2,1]  -1.0249739854318418e-01
    x[1,3]    findWorstP[3,1]  -0.0490627110652343
    x[1,4]    allocateEach[4]  1
    x[1,4]    findWorstP[1,2]  7.7104240385173148e-02
    x[1,4]    findWorstP[1,3]  7.7104240385173148e-02
    x[1,4]    findWorstP[2,1]  -8.7360549814873067e-02
    x[1,4]    findWorstP[3,1]  -0.0363956111174829
    x[1,5]    allocateEach[5]  1
    x[1,5]    findWorstP[1,2]  5.7520737861824933e-02
    x[1,5]    findWorstP[1,3]  5.7520737861824933e-02
    x[1,5]    findWorstP[2,1]  -3.1665174358105654e-02
    x[1,5]    findWorstP[3,1]  -4.6386563188948789e-03
    x[1,6]    allocateEach[6]  1
    x[1,6]    findWorstP[1,2]  7.8206392482162546e-02
    x[1,6]    findWorstP[1,3]  7.8206392482162546e-02
    x[1,6]    findWorstP[2,1]  -1.7375311569827943e-02
    x[1,6]    findWorstP[3,1]  -6.8369206458436874e-02
    x[1,7]    allocateEach[7]  1
    x[1,7]    findWorstP[1,2]  0.0675561227449388
    x[1,7]    findWorstP[1,3]  0.0675561227449388
    x[1,7]    findWorstP[2,1]  -4.7975703603320187e-02
    x[1,7]    findWorstP[3,1]  -1.2413503077570058e-01
    x[1,8]    allocateEach[8]  1
    x[1,8]    findWorstP[1,2]  1.0529613086605950e-01
    x[1,8]    findWorstP[1,3]  1.0529613086605950e-01
    x[1,8]    findWorstP[2,1]  -5.0480362025990370e-02
    x[1,8]    findWorstP[3,1]  -7.8869900982528593e-02
    x[1,9]    allocateEach[9]  1
    x[1,9]    findWorstP[1,2]  8.2719415279308550e-03
    x[1,9]    findWorstP[1,3]  8.2719415279308550e-03
    x[1,9]    findWorstP[2,1]  -5.7728141712847569e-02
    x[1,9]    findWorstP[3,1]  -1.0416587019408445e-01
    x[1,10]   allocateEach[10]  1
    x[1,10]   findWorstP[1,2]  7.4853529787110615e-02
    x[1,10]   findWorstP[1,3]  7.4853529787110615e-02
    x[1,10]   findWorstP[2,1]  -1.0506255596157103e-01
    x[1,10]   findWorstP[3,1]  -0.0838526334569459
    x[1,11]   allocateEach[11]  1
    x[1,11]   findWorstP[1,2]  6.6001508208132720e-02
    x[1,11]   findWorstP[1,3]  6.6001508208132720e-02
    x[1,11]   findWorstP[2,1]  -5.2319531495777172e-02
    x[1,11]   findWorstP[3,1]  -5.2363293445986420e-02
    x[1,12]   allocateEach[12]  1
    x[1,12]   findWorstP[1,2]  1.0140959452404431e-01
    x[1,12]   findWorstP[1,3]  1.0140959452404431e-01
    x[1,12]   findWorstP[2,1]  -7.0178835031338488e-03
    x[1,12]   findWorstP[3,1]  -1.2237641931414155e-01
    x[1,13]   allocateEach[13]  1
    x[1,13]   findWorstP[1,2]  1.1467022449097974e-01
    x[1,13]   findWorstP[1,3]  1.1467022449097974e-01
    x[1,13]   findWorstP[2,1]  -1.0587324250417443e-01
    x[1,13]   findWorstP[3,1]  -9.1498770246333048e-03
    x[1,14]   allocateEach[14]  1
    x[1,14]   findWorstP[1,2]  5.7891989094495042e-03
    x[1,14]   findWorstP[1,3]  5.7891989094495042e-03
    x[1,14]   findWorstP[2,1]  -6.4612927425404740e-02
    x[1,14]   findWorstP[3,1]  -1.2158631851257153e-01
    x[1,15]   allocateEach[15]  1
    x[1,15]   findWorstP[1,2]  7.2045942340042926e-02
    x[1,15]   findWorstP[1,3]  7.2045942340042926e-02
    x[1,15]   findWorstP[2,1]  -8.8013938968613134e-02
    x[1,15]   findWorstP[3,1]  -1.9497648812937265e-03
    x[2,1]    allocateEach[1]  1
    x[2,1]    findWorstP[1,2]  -2.7078136782876037e-02
    x[2,1]    findWorstP[2,1]  4.4152167074026569e-02
    x[2,1]    findWorstP[2,3]  4.4152167074026569e-02
    x[2,1]    findWorstP[3,2]  -2.3256999401052619e-02
    x[2,2]    allocateEach[2]  1
    x[2,2]    findWorstP[1,2]  -3.7241139277220253e-02
    x[2,2]    findWorstP[2,1]  6.5266316579144792e-02
    x[2,2]    findWorstP[2,3]  6.5266316579144792e-02
    x[2,2]    findWorstP[3,2]  -4.3366339157140860e-02
    x[2,3]    allocateEach[3]  1
    x[2,3]    findWorstP[1,2]  -3.7345553686408725e-02
    x[2,3]    findWorstP[2,1]  1.0249739854318418e-01
    x[2,3]    findWorstP[2,3]  1.0249739854318418e-01
    x[2,3]    findWorstP[3,2]  -0.0490627110652343
    x[2,4]    allocateEach[4]  1
    x[2,4]    findWorstP[1,2]  -7.7104240385173148e-02
    x[2,4]    findWorstP[2,1]  8.7360549814873067e-02
    x[2,4]    findWorstP[2,3]  8.7360549814873067e-02
    x[2,4]    findWorstP[3,2]  -0.0363956111174829
    x[2,5]    allocateEach[5]  1
    x[2,5]    findWorstP[1,2]  -5.7520737861824933e-02
    x[2,5]    findWorstP[2,1]  3.1665174358105654e-02
    x[2,5]    findWorstP[2,3]  3.1665174358105654e-02
    x[2,5]    findWorstP[3,2]  -4.6386563188948789e-03
    x[2,6]    allocateEach[6]  1
    x[2,6]    findWorstP[1,2]  -7.8206392482162546e-02
    x[2,6]    findWorstP[2,1]  1.7375311569827943e-02
    x[2,6]    findWorstP[2,3]  1.7375311569827943e-02
    x[2,6]    findWorstP[3,2]  -6.8369206458436874e-02
    x[2,7]    allocateEach[7]  1
    x[2,7]    findWorstP[1,2]  -0.0675561227449388
    x[2,7]    findWorstP[2,1]  4.7975703603320187e-02
    x[2,7]    findWorstP[2,3]  4.7975703603320187e-02
    x[2,7]    findWorstP[3,2]  -1.2413503077570058e-01
    x[2,8]    allocateEach[8]  1
    x[2,8]    findWorstP[1,2]  -1.0529613086605950e-01
    x[2,8]    findWorstP[2,1]  5.0480362025990370e-02
    x[2,8]    findWorstP[2,3]  5.0480362025990370e-02
    x[2,8]    findWorstP[3,2]  -7.8869900982528593e-02
    x[2,9]    allocateEach[9]  1
    x[2,9]    findWorstP[1,2]  -8.2719415279308550e-03
    x[2,9]    findWorstP[2,1]  5.7728141712847569e-02
    x[2,9]    findWorstP[2,3]  5.7728141712847569e-02
    x[2,9]    findWorstP[3,2]  -1.0416587019408445e-01
    x[2,10]   allocateEach[10]  1
    x[2,10]   findWorstP[1,2]  -7.4853529787110615e-02
    x[2,10]   findWorstP[2,1]  1.0506255596157103e-01
    x[2,10]   findWorstP[2,3]  1.0506255596157103e-01
    x[2,10]   findWorstP[3,2]  -0.0838526334569459
    x[2,11]   allocateEach[11]  1
    x[2,11]   findWorstP[1,2]  -6.6001508208132720e-02
    x[2,11]   findWorstP[2,1]  5.2319531495777172e-02
    x[2,11]   findWorstP[2,3]  5.2319531495777172e-02
    x[2,11]   findWorstP[3,2]  -5.2363293445986420e-02
    x[2,12]   allocateEach[12]  1
    x[2,12]   findWorstP[1,2]  -1.0140959452404431e-01
    x[2,12]   findWorstP[2,1]  7.0178835031338488e-03
    x[2,12]   findWorstP[2,3]  7.0178835031338488e-03
    x[2,12]   findWorstP[3,2]  -1.2237641931414155e-01
    x[2,13]   allocateEach[13]  1
    x[2,13]   findWorstP[1,2]  -1.1467022449097974e-01
    x[2,13]   findWorstP[2,1]  1.0587324250417443e-01
    x[2,13]   findWorstP[2,3]  1.0587324250417443e-01
    x[2,13]   findWorstP[3,2]  -9.1498770246333048e-03
    x[2,14]   allocateEach[14]  1
    x[2,14]   findWorstP[1,2]  -5.7891989094495042e-03
    x[2,14]   findWorstP[2,1]  6.4612927425404740e-02
    x[2,14]   findWorstP[2,3]  6.4612927425404740e-02
    x[2,14]   findWorstP[3,2]  -1.2158631851257153e-01
    x[2,15]   allocateEach[15]  1
    x[2,15]   findWorstP[1,2]  -7.2045942340042926e-02
    x[2,15]   findWorstP[2,1]  8.8013938968613134e-02
    x[2,15]   findWorstP[2,3]  8.8013938968613134e-02
    x[2,15]   findWorstP[3,2]  -1.9497648812937265e-03
    x[3,1]    allocateEach[1]  1
    x[3,1]    findWorstP[1,3]  -2.7078136782876037e-02
    x[3,1]    findWorstP[2,3]  -4.4152167074026569e-02
    x[3,1]    findWorstP[3,1]  2.3256999401052619e-02
    x[3,1]    findWorstP[3,2]  2.3256999401052619e-02
    x[3,2]    allocateEach[2]  1
    x[3,2]    findWorstP[1,3]  -3.7241139277220253e-02
    x[3,2]    findWorstP[2,3]  -6.5266316579144792e-02
    x[3,2]    findWorstP[3,1]  4.3366339157140860e-02
    x[3,2]    findWorstP[3,2]  4.3366339157140860e-02
    x[3,3]    allocateEach[3]  1
    x[3,3]    findWorstP[1,3]  -3.7345553686408725e-02
    x[3,3]    findWorstP[2,3]  -1.0249739854318418e-01
    x[3,3]    findWorstP[3,1]  0.0490627110652343
    x[3,3]    findWorstP[3,2]  0.0490627110652343
    x[3,4]    allocateEach[4]  1
    x[3,4]    findWorstP[1,3]  -7.7104240385173148e-02
    x[3,4]    findWorstP[2,3]  -8.7360549814873067e-02
    x[3,4]    findWorstP[3,1]  0.0363956111174829
    x[3,4]    findWorstP[3,2]  0.0363956111174829
    x[3,5]    allocateEach[5]  1
    x[3,5]    findWorstP[1,3]  -5.7520737861824933e-02
    x[3,5]    findWorstP[2,3]  -3.1665174358105654e-02
    x[3,5]    findWorstP[3,1]  4.6386563188948789e-03
    x[3,5]    findWorstP[3,2]  4.6386563188948789e-03
    x[3,6]    allocateEach[6]  1
    x[3,6]    findWorstP[1,3]  -7.8206392482162546e-02
    x[3,6]    findWorstP[2,3]  -1.7375311569827943e-02
    x[3,6]    findWorstP[3,1]  6.8369206458436874e-02
    x[3,6]    findWorstP[3,2]  6.8369206458436874e-02
    x[3,7]    allocateEach[7]  1
    x[3,7]    findWorstP[1,3]  -0.0675561227449388
    x[3,7]    findWorstP[2,3]  -4.7975703603320187e-02
    x[3,7]    findWorstP[3,1]  1.2413503077570058e-01
    x[3,7]    findWorstP[3,2]  1.2413503077570058e-01
    x[3,8]    allocateEach[8]  1
    x[3,8]    findWorstP[1,3]  -1.0529613086605950e-01
    x[3,8]    findWorstP[2,3]  -5.0480362025990370e-02
    x[3,8]    findWorstP[3,1]  7.8869900982528593e-02
    x[3,8]    findWorstP[3,2]  7.8869900982528593e-02
    x[3,9]    allocateEach[9]  1
    x[3,9]    findWorstP[1,3]  -8.2719415279308550e-03
    x[3,9]    findWorstP[2,3]  -5.7728141712847569e-02
    x[3,9]    findWorstP[3,1]  1.0416587019408445e-01
    x[3,9]    findWorstP[3,2]  1.0416587019408445e-01
    x[3,10]   allocateEach[10]  1
    x[3,10]   findWorstP[1,3]  -7.4853529787110615e-02
    x[3,10]   findWorstP[2,3]  -1.0506255596157103e-01
    x[3,10]   findWorstP[3,1]  0.0838526334569459
    x[3,10]   findWorstP[3,2]  0.0838526334569459
    x[3,11]   allocateEach[11]  1
    x[3,11]   findWorstP[1,3]  -6.6001508208132720e-02
    x[3,11]   findWorstP[2,3]  -5.2319531495777172e-02
    x[3,11]   findWorstP[3,1]  5.2363293445986420e-02
    x[3,11]   findWorstP[3,2]  5.2363293445986420e-02
    x[3,12]   allocateEach[12]  1
    x[3,12]   findWorstP[1,3]  -1.0140959452404431e-01
    x[3,12]   findWorstP[2,3]  -7.0178835031338488e-03
    x[3,12]   findWorstP[3,1]  1.2237641931414155e-01
    x[3,12]   findWorstP[3,2]  1.2237641931414155e-01
    x[3,13]   allocateEach[13]  1
    x[3,13]   findWorstP[1,3]  -1.1467022449097974e-01
    x[3,13]   findWorstP[2,3]  -1.0587324250417443e-01
    x[3,13]   findWorstP[3,1]  9.1498770246333048e-03
    x[3,13]   findWorstP[3,2]  9.1498770246333048e-03
    x[3,14]   allocateEach[14]  1
    x[3,14]   findWorstP[1,3]  -5.7891989094495042e-03
    x[3,14]   findWorstP[2,3]  -6.4612927425404740e-02
    x[3,14]   findWorstP[3,1]  1.2158631851257153e-01
    x[3,14]   findWorstP[3,2]  1.2158631851257153e-01
    x[3,15]   allocateEach[15]  1
    x[3,15]   findWorstP[1,3]  -7.2045942340042926e-02
    x[3,15]   findWorstP[2,3]  -8.8013938968613134e-02
    x[3,15]   findWorstP[3,1]  1.9497648812937265e-03
    x[3,15]   findWorstP[3,2]  1.9497648812937265e-03
    MARKER    'MARKER'                 'INTEND'
RHS
    RHS1      allocateEach[1]  1
    RHS1      allocateEach[2]  1
    RHS1      allocateEach[3]  1
    RHS1      allocateEach[4]  1
    RHS1      allocateEach[5]  1
    RHS1      allocateEach[6]  1
    RHS1      allocateEach[7]  1
    RHS1      allocateEach[8]  1
    RHS1      allocateEach[9]  1
    RHS1      allocateEach[10]  1
    RHS1      allocateEach[11]  1
    RHS1      allocateEach[12]  1
    RHS1      allocateEach[13]  1
    RHS1      allocateEach[14]  1
    RHS1      allocateEach[15]  1
    RHS1      allocateAllCash  1
BOUNDS
 UP BND1      z         1
 MI BND1      cashProportion[1]
 UP BND1      cashProportion[1]  1
 MI BND1      cashProportion[2]
 UP BND1      cashProportion[2]  1
 MI BND1      cashProportion[3]
 UP BND1      cashProportion[3]  1
 BV BND1      x[1,1]  
 BV BND1      x[1,2]  
 BV BND1      x[1,3]  
 BV BND1      x[1,4]  
 BV BND1      x[1,5]  
 BV BND1      x[1,6]  
 BV BND1      x[1,7]  
 BV BND1      x[1,8]  
 BV BND1      x[1,9]  
 BV BND1      x[1,10] 
 BV BND1      x[1,11] 
 BV BND1      x[1,12] 
 BV BND1      x[1,13] 
 BV BND1      x[1,14] 
 BV BND1      x[1,15] 
 BV BND1      x[2,1]  
 BV BND1      x[2,2]  
 BV BND1      x[2,3]  
 BV BND1      x[2,4]  
 BV BND1      x[2,5]  
 BV BND1      x[2,6]  
 BV BND1      x[2,7]  
 BV BND1      x[2,8]  
 BV BND1      x[2,9]  
 BV BND1      x[2,10] 
 BV BND1      x[2,11] 
 BV BND1      x[2,12] 
 BV BND1      x[2,13] 
 BV BND1      x[2,14] 
 BV BND1      x[2,15] 
 BV BND1      x[3,1]  
 BV BND1      x[3,2]  
 BV BND1      x[3,3]  
 BV BND1      x[3,4]  
 BV BND1      x[3,5]  
 BV BND1      x[3,6]  
 BV BND1      x[3,7]  
 BV BND1      x[3,8]  
 BV BND1      x[3,9]  
 BV BND1      x[3,10] 
 BV BND1      x[3,11] 
 BV BND1      x[3,12] 
 BV BND1      x[3,13] 
 BV BND1      x[3,14] 
 BV BND1      x[3,15] 
ENDATA
